proyfinal/src/viki/013/experimentInOfficeAgust.take6.output/4d636907-5c08-475f-9867-10d38401aa92.als.dat
{'cnf.clauses': '118081',
 'cnf.totvars': '69608',
 'conflict literals': '44',
 'conflicts': '22',
 'decisions': '5487',
 'memused.mb': '16.76',
 'outcome': 'UNSAT',
 'propagations': '29557',
 'restarts': '1',
 'solver.msecs': 29,
 'task.msecs': 72}
