proyfinal/src/viki/013/experimentInOfficeAgust.take6.output/4d636907-5c08-475f-9867-10d38401aa92.als.out
Reading from standard input... Use '--help' for help.
============================[ Problem Statistics ]=============================
|                                                                             |
|  Number of variables:         69608                                         |
|  Number of clauses:          118081                                         |
|  Parse time:                   0.02 s                                       |
|                                                                             |
============================[ Search Statistics ]==============================
| Conflicts |          ORIGINAL         |          LEARNT          | Progress |
|           |    Vars  Clauses Literals |    Limit  Clauses Lit/Cl |          |
===============================================================================
===============================================================================
restarts              : 1
conflicts             : 22             (734 /sec)
decisions             : 5487           (0.00 % random) (182991 /sec)
propagations          : 29557          (985726 /sec)
conflict literals     : 44             (0.00 % deleted)
Memory used           : 16.76 MB
CPU time              : 0.029985 s

UNSATISFIABLE
